\ This file has been generated by DOcplex
\ ENCODING=ISO-8859-1
\Problem name: AMC CVRP Docplex Model

Minimize
 obj: - 6 x_0 + 10 x_1 + 37 x_2 + 15 x_3 + 15 x_4 - 8 x_6 - 16 x_7 + 19 x_8
Subject To
 allVarsCons: x_0 + x_1 + x_2 + x_3 + x_4 + x_5 + x_6 + x_7 + x_8 = 4
 randomCons: 43 x_0 + 21 x_2 = 21
 randomCons#2: 22 x_0 + 28 x_5 - 29 x_7 = -29
 randomCons#3: - 8 x_0 + 44 x_4 + 45 x_5 = 44

Bounds
 0 <= x_0 <= 1
 0 <= x_1 <= 1
 0 <= x_2 <= 1
 0 <= x_3 <= 1
 0 <= x_4 <= 1
 0 <= x_5 <= 1
 0 <= x_6 <= 1
 0 <= x_7 <= 1
 0 <= x_8 <= 1

Binaries
 x_0 x_1 x_2 x_3 x_4 x_5 x_6 x_7 x_8
End
